c clasp version 2.1.1
c Reading from p39.cnf
c Solving...
s SATISFIABLE

c Models        : 1+    
c Time          : 3.745s (Solving: 2.19s 1st Model: 2.19s Unsat: 0.00s)
c CPU Time      : 3.730s
c Choices       : 27305
c Conflicts     : 5251
c Restarts      : 1      (Average: 5251.00 Last: 1449)

c Variables     : 236127 (Eliminated: 74215 Frozen:    0)
c Constraints   : 268550 (Binary: 64.9% Ternary: 33.7% Other:  1.4%)
c Lemmas        : 5251   (Binary:  0.1% Ternary:  0.5% Other: 99.5%)
c   Conflict    : 5251   (Average Length: 257.0) 
c   Loop        : 0      (Average Length: 0.0) 
c   Other       : 0      (Average Length: 0.0)
c   Deleted     : 0     
